; benchmark generated from python API
(set-info :status unknown)
(declare-fun DISJ_W_S2_R_S2 () Bool)
(declare-fun DISJ_W_S2_R_S1 () Bool)
(declare-fun R_E1_V4 () Bool)
(declare-fun W_S1_V4 () Bool)
(declare-fun R_E1_V5 () Bool)
(declare-fun W_S1_V5 () Bool)
(declare-fun W_S2_V5 () Bool)
(declare-fun W_S2_V2 () Bool)
(declare-fun W_S2_V3 () Bool)
(declare-fun W_S2_V1 () Bool)
(declare-fun R_S2_V4 () Bool)
(declare-fun R_S2_V5 () Bool)
(declare-fun R_S2_V2 () Bool)
(declare-fun R_S2_V3 () Bool)
(declare-fun R_S2_V1 () Bool)
(declare-fun R_S1_V4 () Bool)
(declare-fun R_S1_V5 () Bool)
(declare-fun R_S1_V2 () Bool)
(declare-fun R_S1_V3 () Bool)
(declare-fun R_S1_V1 () Bool)
(declare-fun R_E1_V2 () Bool)
(declare-fun DISJ_W_S2_R_E1 () Bool)
(declare-fun DISJ_W_S1_W_S2 () Bool)
(declare-fun R_E1_V3 () Bool)
(declare-fun DISJ_W_S1_R_S2 () Bool)
(declare-fun DISJ_W_S1_R_S1 () Bool)
(declare-fun W_S2_V4 () Bool)
(declare-fun W_S1_V3 () Bool)
(declare-fun W_S1_V2 () Bool)
(declare-fun W_S1_V1 () Bool)
(declare-fun R_E1_V1 () Bool)
(declare-fun DISJ_W_S1_R_E1 () Bool)
(assert
 (let (($x1468 (and DISJ_W_S2_R_S1 DISJ_W_S2_R_S2)))
 (let (($x554 (not $x1468)))
 (let (($x6040 (not (and W_S1_V4 R_E1_V4))))
 (let (($x2939 (not (and W_S1_V5 R_E1_V5))))
 (let (($x5200 (forall ((V3_0 Int) )(forall ((V2_0 Int) )(forall ((V5_0 Int) )(forall ((V4_0 Int) )(forall ((MW_S1_V1 Bool) )(forall ((MW_S1_V3 Bool) )(forall ((MW_S1_V2 Bool) )(forall ((MW_S1_V5 Bool) )(forall ((MW_S1_V4 Bool) )(forall ((MW_S2_V1 Bool) )(forall ((MW_S2_V3 Bool) )(forall ((MW_S2_V2 Bool) )(forall ((MW_S2_V5 Bool) )(forall ((MW_S2_V4 Bool) )(forall ((S1_V1_!6442 Int) )(forall ((S1_V1_!6447 Int) )(forall ((S1_V1_!6464 Int) )(forall ((S1_V1_!6474 Int) )(forall ((S2_V5_!6456 Int) )(forall ((S2_V5_!6461 Int) )(forall ((S2_V5_!6472 Int) )(forall ((S2_V5_!6482 Int) )(forall ((S1_V3_!6443 Int) )(forall ((S1_V3_!6448 Int) )(forall ((S1_V3_!6465 Int) )(forall ((S1_V3_!6475 Int) )(forall ((S1_V2_!6444 Int) )(forall ((S1_V2_!6449 Int) )(forall ((S1_V2_!6466 Int) )(forall ((S1_V2_!6476 Int) )(forall ((E1_!6441 Int) )(forall ((E1_!6452 Int) )(forall ((E1_!6463 Int) )(forall ((S2_V4_!6457 Int) )(forall ((S2_V4_!6462 Int) )(forall ((S2_V4_!6473 Int) )(forall ((S2_V4_!6483 Int) )(forall ((S1_V5_!6445 Int) )(forall ((S1_V5_!6450 Int) )(forall ((S1_V5_!6467 Int) )(forall ((S1_V5_!6477 Int) )(forall ((S2_V1_!6453 Int) )(forall ((S2_V1_!6458 Int) )(forall ((S2_V1_!6469 Int) )(forall ((S2_V1_!6479 Int) )(forall ((S1_V4_!6446 Int) )(forall ((S1_V4_!6451 Int) )(forall ((S1_V4_!6468 Int) )(forall ((S1_V4_!6478 Int) )(forall ((S2_V2_!6455 Int) )(forall ((S2_V2_!6460 Int) )(forall ((S2_V2_!6471 Int) )(forall ((S2_V2_!6481 Int) )(forall ((S2_V3_!6454 Int) )(forall ((S2_V3_!6459 Int) )(forall ((S2_V3_!6470 Int) )(forall ((S2_V3_!6480 Int) )(let (($x3275 (= (ite MW_S2_V4 S2_V4_!6462 (ite MW_S1_V4 S1_V4_!6451 V4_0)) (ite MW_S2_V4 S2_V4_!6483 (ite MW_S1_V4 S1_V4_!6478 (ite MW_S2_V4 S2_V4_!6473 (ite MW_S1_V4 S1_V4_!6468 V4_0)))))))
 (let (($x3181 (= (ite MW_S2_V5 S2_V5_!6461 (ite MW_S1_V5 S1_V5_!6450 V5_0)) (ite MW_S2_V5 S2_V5_!6482 (ite MW_S1_V5 S1_V5_!6477 (ite MW_S2_V5 S2_V5_!6472 (ite MW_S1_V5 S1_V5_!6467 V5_0)))))))
 (let ((?x2918 (ite MW_S1_V2 S1_V2_!6466 V2_0)))
 (let ((?x2414 (ite MW_S2_V2 S2_V2_!6471 ?x2918)))
 (let ((?x2521 (ite MW_S1_V2 S1_V2_!6476 ?x2414)))
 (let ((?x2958 (ite MW_S2_V2 S2_V2_!6481 ?x2521)))
 (let ((?x2700 (ite MW_S1_V2 S1_V2_!6449 V2_0)))
 (let ((?x2615 (ite MW_S2_V2 S2_V2_!6460 ?x2700)))
 (let (($x3424 (= (ite MW_S2_V3 S2_V3_!6459 (ite MW_S1_V3 S1_V3_!6448 V3_0)) (ite MW_S2_V3 S2_V3_!6480 (ite MW_S1_V3 S1_V3_!6475 (ite MW_S2_V3 S2_V3_!6470 (ite MW_S1_V3 S1_V3_!6465 V3_0)))))))
 (let ((?x2589 (ite MW_S1_V1 S1_V1_!6464 E1_!6463)))
 (let ((?x3538 (ite MW_S2_V1 S2_V1_!6469 ?x2589)))
 (let ((?x3141 (+ 1 ?x3538)))
 (let ((?x2628 (ite MW_S1_V1 S1_V1_!6474 ?x3141)))
 (let ((?x2618 (ite MW_S2_V1 S2_V1_!6479 ?x2628)))
 (let ((?x3285 (ite MW_S2_V1 S2_V1_!6453 E1_!6452)))
 (let ((?x4817 (+ 1 ?x3285)))
 (let ((?x4001 (ite MW_S2_V1 S2_V1_!6458 ?x4817)))
 (let (($x1666 (>= (ite MW_S1_V1 S1_V1_!6447 (+ 1 (ite MW_S1_V1 S1_V1_!6442 E1_!6441))) (+ (- 1) ?x2700))))
 (let (($x2508 (and (not (<= V2_0 E1_!6441)) (not (<= (ite MW_S1_V2 S1_V2_!6444 V2_0) (+ 1 (ite MW_S1_V1 S1_V1_!6442 E1_!6441)))) $x1666 (not (<= ?x2700 E1_!6452)) (not (<= (ite MW_S2_V2 S2_V2_!6455 ?x2700) ?x4817)) (>= ?x4001 (+ (- 1) ?x2615)) (not (<= V2_0 E1_!6463)) (not (<= ?x2414 ?x3141)) (>= ?x2618 (+ (- 1) ?x2958)))))
 (let (($x3066 (= S2_V3_!6470 S2_V3_!6480)))
 (let ((?x2549 (ite MW_S1_V4 S1_V4_!6468 V4_0)))
 (let ((?x4100 (ite MW_S2_V4 S2_V4_!6473 ?x2549)))
 (let ((?x5086 (ite MW_S1_V4 S1_V4_!6478 ?x4100)))
 (let (($x2465 (not R_S2_V4)))
 (let ((?x4089 (ite MW_S1_V5 S1_V5_!6467 V5_0)))
 (let ((?x3838 (ite MW_S2_V5 S2_V5_!6472 ?x4089)))
 (let ((?x2375 (ite MW_S1_V5 S1_V5_!6477 ?x3838)))
 (let (($x5948 (not R_S2_V5)))
 (let ((?x2612 (ite MW_S1_V3 S1_V3_!6465 V3_0)))
 (let ((?x2603 (ite MW_S2_V3 S2_V3_!6470 ?x2612)))
 (let ((?x4825 (ite MW_S1_V3 S1_V3_!6475 ?x2603)))
 (let (($x6013 (not R_S2_V3)))
 (let (($x3489 (and (or (not R_S2_V1) (= ?x2589 ?x2628)) (or $x6013 (= ?x2612 ?x4825)) (or (not R_S2_V2) (= ?x2918 ?x2521)) (or $x5948 (= ?x4089 ?x2375)) (or $x2465 (= ?x2549 ?x5086)))))
 (let (($x3313 (not $x3489)))
 (let (($x4997 (= S2_V3_!6470 S2_V3_!6454)))
 (let (($x5926 (and (or (not R_S2_V1) (= ?x2589 E1_!6452)) (or $x6013 (= ?x2612 (ite MW_S1_V3 S1_V3_!6448 V3_0))) (or (not R_S2_V2) (= ?x2918 ?x2700)) (or $x5948 (= ?x4089 (ite MW_S1_V5 S1_V5_!6450 V5_0))) (or $x2465 (= ?x2549 (ite MW_S1_V4 S1_V4_!6451 V4_0))))))
 (let (($x5788 (not $x5926)))
 (let (($x2348 (= S2_V3_!6459 S2_V3_!6480)))
 (let (($x3258 (and (or (not R_S2_V1) (= ?x3285 (+ (- 1) ?x2628))) (or $x6013 (= (ite MW_S2_V3 S2_V3_!6454 (ite MW_S1_V3 S1_V3_!6448 V3_0)) ?x4825)) (or (not R_S2_V2) (= (ite MW_S2_V2 S2_V2_!6455 ?x2700) ?x2521)) (or $x5948 (= (ite MW_S2_V5 S2_V5_!6456 (ite MW_S1_V5 S1_V5_!6450 V5_0)) ?x2375)) (or $x2465 (= (ite MW_S2_V4 S2_V4_!6457 (ite MW_S1_V4 S1_V4_!6451 V4_0)) ?x5086)))))
 (let (($x3266 (not $x3258)))
 (let (($x2314 (= S2_V3_!6459 S2_V3_!6470)))
 (let (($x1266 (and (or (not R_S2_V1) (= ?x3285 (+ (- 1) ?x2589))) (or $x6013 (= (ite MW_S2_V3 S2_V3_!6454 (ite MW_S1_V3 S1_V3_!6448 V3_0)) ?x2612)) (or (not R_S2_V2) (= (ite MW_S2_V2 S2_V2_!6455 ?x2700) ?x2918)) (or $x5948 (= (ite MW_S2_V5 S2_V5_!6456 (ite MW_S1_V5 S1_V5_!6450 V5_0)) ?x4089)) (or $x2465 (= (ite MW_S2_V4 S2_V4_!6457 (ite MW_S1_V4 S1_V4_!6451 V4_0)) ?x2549)))))
 (let (($x4292 (not $x1266)))
 (let (($x2480 (= S2_V3_!6459 S2_V3_!6454)))
 (let (($x876 (or $x2465 (= (ite MW_S2_V4 S2_V4_!6457 (ite MW_S1_V4 S1_V4_!6451 V4_0)) (ite MW_S1_V4 S1_V4_!6451 V4_0)))))
 (let (($x818 (or $x5948 (= (ite MW_S2_V5 S2_V5_!6456 (ite MW_S1_V5 S1_V5_!6450 V5_0)) (ite MW_S1_V5 S1_V5_!6450 V5_0)))))
 (let (($x6049 (or $x6013 (= (ite MW_S2_V3 S2_V3_!6454 (ite MW_S1_V3 S1_V3_!6448 V3_0)) (ite MW_S1_V3 S1_V3_!6448 V3_0)))))
 (let (($x754 (and (or (not R_S2_V1) (= ?x3285 (+ (- 1) E1_!6452))) $x6049 (or (not R_S2_V2) (= (ite MW_S2_V2 S2_V2_!6455 ?x2700) ?x2700)) $x818 $x876)))
 (let (($x2797 (not $x754)))
 (let (($x6023 (= S2_V3_!6454 S2_V3_!6480)))
 (let (($x2522 (and (or (not R_S2_V1) (= E1_!6452 ?x2628)) (or $x6013 (= (ite MW_S1_V3 S1_V3_!6448 V3_0) ?x4825)) (or (not R_S2_V2) (= ?x2700 ?x2521)) (or $x5948 (= (ite MW_S1_V5 S1_V5_!6450 V5_0) ?x2375)) (or $x2465 (= (ite MW_S1_V4 S1_V4_!6451 V4_0) ?x5086)))))
 (let (($x2821 (not $x2522)))
 (let (($x2805 (= S2_V2_!6481 S2_V2_!6460)))
 (let (($x3055 (and (or (not R_S2_V1) (= ?x2628 ?x4817)) (or $x6013 (= ?x4825 (ite MW_S2_V3 S2_V3_!6454 (ite MW_S1_V3 S1_V3_!6448 V3_0)))) (or (not R_S2_V2) (= ?x2521 (ite MW_S2_V2 S2_V2_!6455 ?x2700))) (or $x5948 (= ?x2375 (ite MW_S2_V5 S2_V5_!6456 (ite MW_S1_V5 S1_V5_!6450 V5_0)))) (or $x2465 (= ?x5086 (ite MW_S2_V4 S2_V4_!6457 (ite MW_S1_V4 S1_V4_!6451 V4_0)))))))
 (let (($x348 (= S2_V2_!6481 S2_V2_!6455)))
 (let (($x1667 (and (or (not R_S2_V1) (= ?x2628 E1_!6452)) (or $x6013 (= ?x4825 (ite MW_S1_V3 S1_V3_!6448 V3_0))) (or (not R_S2_V2) (= ?x2521 ?x2700)) (or $x5948 (= ?x2375 (ite MW_S1_V5 S1_V5_!6450 V5_0))) (or $x2465 (= ?x5086 (ite MW_S1_V4 S1_V4_!6451 V4_0))))))
 (let (($x1496 (not $x1667)))
 (let (($x2738 (= S2_V2_!6471 S2_V2_!6460)))
 (let (($x438 (and (or (not R_S2_V1) (= ?x2589 ?x4817)) (or $x6013 (= ?x2612 (ite MW_S2_V3 S2_V3_!6454 (ite MW_S1_V3 S1_V3_!6448 V3_0)))) (or (not R_S2_V2) (= ?x2918 (ite MW_S2_V2 S2_V2_!6455 ?x2700))) (or $x5948 (= ?x4089 (ite MW_S2_V5 S2_V5_!6456 (ite MW_S1_V5 S1_V5_!6450 V5_0)))) (or $x2465 (= ?x2549 (ite MW_S2_V4 S2_V4_!6457 (ite MW_S1_V4 S1_V4_!6451 V4_0)))))))
 (let (($x2545 (and (or (not R_S1_V1) (= ?x3538 (ite MW_S1_V1 S1_V1_!6442 E1_!6441))) (or (not R_S1_V3) (= ?x2603 (ite MW_S1_V3 S1_V3_!6443 V3_0))) (or (not R_S1_V2) (= ?x2414 (ite MW_S1_V2 S1_V2_!6444 V2_0))) (or (not R_S1_V5) (= ?x3838 (ite MW_S1_V5 S1_V5_!6445 V5_0))) (or (not R_S1_V4) (= ?x4100 (ite MW_S1_V4 S1_V4_!6446 V4_0))))))
 (let (($x2696 (not $x2545)))
 (let (($x113 (not R_S1_V4)))
 (let (($x2588 (or $x113 (= V4_0 ?x4100))))
 (let (($x108 (not R_S1_V5)))
 (let (($x3309 (or $x108 (= V5_0 ?x3838))))
 (let (($x128 (not R_S1_V2)))
 (let (($x5924 (or $x128 (= V2_0 ?x2414))))
 (let (($x1086 (not R_S1_V3)))
 (let (($x3306 (or $x1086 (= V3_0 ?x2603))))
 (let (($x5954 (not (and (or (not R_S1_V1) (= E1_!6463 ?x3141)) $x3306 $x5924 $x3309 $x2588))))
 (let (($x2792 (or $x113 (= V4_0 (ite MW_S1_V4 S1_V4_!6446 V4_0)))))
 (let (($x3292 (or $x108 (= V5_0 (ite MW_S1_V5 S1_V5_!6445 V5_0)))))
 (let (($x5925 (or $x128 (= V2_0 (ite MW_S1_V2 S1_V2_!6444 V2_0)))))
 (let (($x2705 (or $x1086 (= V3_0 (ite MW_S1_V3 S1_V3_!6443 V3_0)))))
 (let (($x3172 (and (or (not R_S1_V1) (= E1_!6463 (+ 1 (ite MW_S1_V1 S1_V1_!6442 E1_!6441)))) $x2705 $x5925 $x3292 $x2792)))
 (let (($x3943 (not $x3172)))
 (let (($x2562 (not (and (or (not R_S1_V1) (= E1_!6441 ?x3141)) $x3306 $x5924 $x3309 $x2588))))
 (let (($x3119 (and (or (not R_S1_V1) (= E1_!6441 (+ 1 (ite MW_S1_V1 S1_V1_!6442 E1_!6441)))) $x2705 $x5925 $x3292 $x2792)))
 (let (($x4393 (not $x3119)))
 (let (($x1067 (or $x113 (= ?x4100 V4_0))))
 (let (($x699 (or $x108 (= ?x3838 V5_0))))
 (let (($x4982 (or $x128 (= ?x2414 V2_0))))
 (let (($x968 (or $x1086 (= ?x2603 V3_0))))
 (let (($x1155 (and (or (not R_S1_V1) (= ?x3538 (+ (- 1) E1_!6463))) $x968 $x4982 $x699 $x1067)))
 (let (($x3606 (not $x1155)))
 (let (($x1331 (and (or (not R_S1_V1) (= ?x3538 (+ (- 1) E1_!6441))) $x968 $x4982 $x699 $x1067)))
 (let (($x1233 (not $x1331)))
 (let (($x1672 (= S2_V4_!6483 S2_V4_!6473)))
 (let (($x5285 (and (or (not R_S2_V1) (= ?x2628 ?x2589)) (or $x6013 (= ?x4825 ?x2612)) (or (not R_S2_V2) (= ?x2521 ?x2918)) (or $x5948 (= ?x2375 ?x4089)) (or $x2465 (= ?x5086 ?x2549)))))
 (let (($x761 (= E1_!6452 E1_!6463)))
 (let (($x3899 (and (or (not R_E1_V2) (= ?x2700 V2_0)) (or (not R_E1_V5) (= (ite MW_S1_V5 S1_V5_!6450 V5_0) V5_0)) (or (not R_E1_V4) (= (ite MW_S1_V4 S1_V4_!6451 V4_0) V4_0)))))
 (let (($x2403 (= E1_!6441 E1_!6463)))
 (let (($x2878 (and (or (not R_E1_V2) (= V2_0 ?x2700)) (or (not R_E1_V5) (= V5_0 (ite MW_S1_V5 S1_V5_!6450 V5_0))) (or (not R_E1_V4) (= V4_0 (ite MW_S1_V4 S1_V4_!6451 V4_0))))))
 (let (($x5821 (= S1_V2_!6449 S1_V2_!6476)))
 (let (($x3163 (and (or (not R_S1_V1) (= (ite MW_S1_V1 S1_V1_!6442 E1_!6441) ?x3538)) (or $x1086 (= (ite MW_S1_V3 S1_V3_!6443 V3_0) ?x2603)) (or $x128 (= (ite MW_S1_V2 S1_V2_!6444 V2_0) ?x2414)) (or $x108 (= (ite MW_S1_V5 S1_V5_!6445 V5_0) ?x3838)) (or $x113 (= (ite MW_S1_V4 S1_V4_!6446 V4_0) ?x4100)))))
 (let (($x3805 (not $x3163)))
 (let (($x4521 (or $x113 (= (ite MW_S1_V4 S1_V4_!6446 V4_0) V4_0))))
 (let (($x3569 (or $x108 (= (ite MW_S1_V5 S1_V5_!6445 V5_0) V5_0))))
 (let (($x3668 (or $x128 (= (ite MW_S1_V2 S1_V2_!6444 V2_0) V2_0))))
 (let (($x5077 (or $x1086 (= (ite MW_S1_V3 S1_V3_!6443 V3_0) V3_0))))
 (let (($x2950 (and (or (not R_S1_V1) (= (ite MW_S1_V1 S1_V1_!6442 E1_!6441) (+ (- 1) E1_!6463))) $x5077 $x3668 $x3569 $x4521)))
 (let (($x4249 (not $x2950)))
 (let (($x3827 (and (or (not R_S1_V1) (= (ite MW_S1_V1 S1_V1_!6442 E1_!6441) (+ (- 1) E1_!6441))) $x5077 $x3668 $x3569 $x4521)))
 (let (($x5210 (not $x3827)))
 (let (($x4760 (and (or (not R_S2_V1) (= E1_!6452 ?x2589)) (or $x6013 (= (ite MW_S1_V3 S1_V3_!6448 V3_0) ?x2612)) (or (not R_S2_V2) (= ?x2700 ?x2918)) (or $x5948 (= (ite MW_S1_V5 S1_V5_!6450 V5_0) ?x4089)) (or $x2465 (= (ite MW_S1_V4 S1_V4_!6451 V4_0) ?x2549)))))
 (let (($x3187 (and (or (not (or (not R_S1_V1) $x2403)) (= S1_V1_!6442 S1_V1_!6464)) (or $x5210 (= S1_V1_!6447 S1_V1_!6442)) (or $x4249 (= S1_V1_!6447 S1_V1_!6464)) (or $x1233 (= S1_V1_!6474 S1_V1_!6442)) (or $x2696 (= S1_V1_!6474 S1_V1_!6447)) (or $x3606 (= S1_V1_!6474 S1_V1_!6464)) (or (not $x4760) (= S2_V5_!6456 S2_V5_!6472)) (or $x2821 (= S2_V5_!6456 S2_V5_!6482)) (or $x2797 (= S2_V5_!6461 S2_V5_!6456)) (or $x4292 (= S2_V5_!6461 S2_V5_!6472)) (or $x3266 (= S2_V5_!6461 S2_V5_!6482)) (or $x3313 (= S2_V5_!6472 S2_V5_!6482)) (or (not (or (not R_S1_V1) $x2403)) (= S1_V3_!6443 S1_V3_!6465)) (or $x2562 (= S1_V3_!6443 S1_V3_!6475)) (or $x5210 (= S1_V3_!6448 S1_V3_!6443)) (or $x4249 (= S1_V3_!6448 S1_V3_!6465)) (or $x3805 (= S1_V3_!6448 S1_V3_!6475)) (or $x5954 (= S1_V3_!6465 S1_V3_!6475)) (or (not (or (not R_S1_V1) $x2403)) (= S1_V2_!6444 S1_V2_!6466)) (or $x5210 (= S1_V2_!6449 S1_V2_!6444)) (or $x4249 (= S1_V2_!6449 S1_V2_!6466)) (or $x3805 $x5821) (or $x1233 (= S1_V2_!6476 S1_V2_!6444)) (or $x3606 (= S1_V2_!6476 S1_V2_!6466)) (or (not $x2878) (= E1_!6441 E1_!6452)) $x2403 (or (not $x3899) $x761) (or $x2797 (= S2_V4_!6462 S2_V4_!6457)) (or $x4292 (= S2_V4_!6462 S2_V4_!6473)) (or $x3266 (= S2_V4_!6462 S2_V4_!6483)) (or $x5788 (= S2_V4_!6473 S2_V4_!6457)) (or $x1496 (= S2_V4_!6483 S2_V4_!6457)) (or (not $x5285) $x1672) (or $x4393 (= S1_V5_!6445 S1_V5_!6450)) (or (not (or (not R_S1_V1) (= E1_!6463 E1_!6441))) (= S1_V5_!6467 S1_V5_!6445)) (or $x3943 (= S1_V5_!6467 S1_V5_!6450)) (or $x1233 (= S1_V5_!6477 S1_V5_!6445)) (or $x2696 (= S1_V5_!6477 S1_V5_!6450)) (or $x3606 (= S1_V5_!6477 S1_V5_!6467)) (or $x2797 (= S2_V1_!6458 S2_V1_!6453)) (or $x4292 (= S2_V1_!6458 S2_V1_!6469)) (or $x3266 (= S2_V1_!6458 S2_V1_!6479)) (or $x5788 (= S2_V1_!6469 S2_V1_!6453)) (or $x3313 (= S2_V1_!6469 S2_V1_!6479)) (or $x1496 (= S2_V1_!6479 S2_V1_!6453)) (or $x4393 (= S1_V4_!6446 S1_V4_!6451)) (or $x2562 (= S1_V4_!6446 S1_V4_!6478)) (or (not (or (not R_S1_V1) (= E1_!6463 E1_!6441))) (= S1_V4_!6468 S1_V4_!6446)) (or $x3943 (= S1_V4_!6468 S1_V4_!6451)) (or $x5954 (= S1_V4_!6468 S1_V4_!6478)) (or $x2696 (= S1_V4_!6478 S1_V4_!6451)) (or $x2797 (= S2_V2_!6460 S2_V2_!6455)) (or $x5788 (= S2_V2_!6471 S2_V2_!6455)) (or (not $x438) $x2738) (or $x3313 (= S2_V2_!6471 S2_V2_!6481)) (or $x1496 $x348) (or (not $x3055) $x2805) (or $x2821 $x6023) (or $x2797 $x2480) (or $x4292 $x2314) (or $x3266 $x2348) (or $x5788 $x4997) (or $x3313 $x3066) (not MW_S1_V1) (not MW_S1_V2) (or (not MW_S1_V5) W_S1_V5) (or (not MW_S1_V4) W_S1_V4) (or (not MW_S2_V1) W_S2_V1) (or (not MW_S2_V3) W_S2_V3) (or (not MW_S2_V2) W_S2_V2) (or (not MW_S2_V5) W_S2_V5))))
 (or (not $x3187) (not $x2508) (and (= ?x4001 ?x2618) $x3424 (= ?x2615 ?x2958) $x3181 $x3275)))))))))))))))))))))))))))))))))))))))))))))))))))))))))))))))))))))))))))))))))))))))))))))))))))))))))))))
 )
 )
 )
 )
 )
 )
 )
 )
 )
 )
 )
 )
 )
 )
 )
 )
 )
 )
 )
 )
 )
 )
 )
 )
 )
 )
 )
 )
 )
 )
 )
 )
 )
 )
 )
 )
 )
 )
 )
 )
 )
 )
 )
 )
 )
 )
 )
 )
 )
 )
 )
 )
 )
 )
 )
 )
 ))
 (let (($x3315 (not (or (and W_S2_V2 R_E1_V2) (and W_S2_V5 R_E1_V5) R_E1_V4))))
 (let (($x3537 (= DISJ_W_S2_R_E1 $x3315)))
 (let (($x3220 (and W_S2_V5 R_S2_V5)))
 (let (($x3038 (and W_S2_V2 R_S2_V2)))
 (let (($x3501 (and W_S2_V3 R_S2_V3)))
 (let (($x2778 (and W_S2_V1 R_S2_V1)))
 (let (($x3244 (= DISJ_W_S2_R_S2 (not (or $x2778 $x3501 $x3038 $x3220 R_S2_V4)))))
 (let (($x2463 (and W_S2_V5 R_S1_V5)))
 (let (($x2754 (and W_S2_V2 R_S1_V2)))
 (let (($x3495 (and W_S2_V3 R_S1_V3)))
 (let (($x3133 (and W_S2_V1 R_S1_V1)))
 (let (($x3125 (= DISJ_W_S2_R_S1 (not (or $x3133 $x3495 $x2754 $x2463 R_S1_V4)))))
 (let (($x1039 (= DISJ_W_S1_W_S2 (not (or W_S2_V3 (and W_S1_V5 W_S2_V5) W_S1_V4)))))
 (let (($x809 (not R_E1_V3)))
 (let (($x4321 (not (or R_S2_V3 (and W_S1_V5 R_S2_V5) (and W_S1_V4 R_S2_V4)))))
 (let (($x25 (= DISJ_W_S1_R_S2 $x4321)))
 (let (($x2707 (not (or R_S1_V3 (and W_S1_V5 R_S1_V5) (and W_S1_V4 R_S1_V4)))))
 (let (($x3426 (= DISJ_W_S1_R_S1 $x2707)))
 (let (($x2649 (not W_S2_V3)))
 (let (($x2691 (not W_S2_V2)))
 (let (($x2465 (not R_S2_V4)))
 (let (($x3352 (not R_S2_V1)))
 (let (($x3026 (and $x3352 $x2465 $x2691 $x2649 DISJ_W_S2_R_S1)))
 (let (($x5948 (not R_S2_V5)))
 (let (($x2607 (and $x5948 $x2465 $x2649 DISJ_W_S2_R_S1)))
 (let (($x835 (and $x2465 (not W_S1_V5) $x2649 DISJ_W_S2_R_S1)))
 (let (($x1314 (and $x3352 $x5948 $x2691 $x2649 DISJ_W_S2_R_S1)))
 (let (($x585 (not W_S1_V4)))
 (let (($x671 (and $x5948 $x585 $x2649 DISJ_W_S2_R_S1)))
 (let (($x1953 (not W_S2_V5)))
 (let (($x559 (and $x3352 $x2691 $x1953 $x2649 DISJ_W_S2_R_S1)))
 (let (($x1966 (and DISJ_W_S1_W_S2 DISJ_W_S2_R_S1)))
 (let (($x6013 (not R_S2_V3)))
 (let (($x2000 (and $x3352 $x6013 $x5948 $x2691 DISJ_W_S2_R_S1)))
 (let (($x1951 (and $x3352 $x6013 $x2465 $x2691 DISJ_W_S2_R_S1)))
 (let (($x2010 (and $x3352 $x2465 $x2691 $x1953 DISJ_W_S2_R_S1)))
 (let (($x421 (and $x3352 $x5948 $x2465 $x2691 DISJ_W_S2_R_S1)))
 (let (($x8 (and $x3352 $x6013 $x2691 $x1953 DISJ_W_S2_R_S1)))
 (let (($x1179 (and (not W_S2_V1) $x2691)))
 (let (($x406 (and $x6013 $x2465 $x1953 DISJ_W_S2_R_S1)))
 (let (($x3631 (and $x2465 $x1953 $x2649 DISJ_W_S2_R_S1)))
 (let (($x358 (and $x6013 $x585 $x1953 DISJ_W_S2_R_S1)))
 (let (($x458 (and DISJ_W_S1_R_S2 DISJ_W_S2_R_S1)))
 (let (($x1096 (and $x2691 DISJ_W_S2_R_S2)))
 (let (($x889 (or $x1468 $x1096 $x458 $x358 $x3631 $x406 $x1179 $x8 $x421 $x2010 $x1951 $x2000 $x1966 $x559 $x671 $x1314 $x835 $x2607 $x3026)))
 (let (($x132 (not R_S1_V1)))
 (let (($x564 (and $x132 DISJ_W_S1_R_S1)))
 (let (($x442 (and $x2691 DISJ_W_S2_R_S1 DISJ_W_S1_R_S1)))
 (let (($x5701 (or $x442 $x1179 $x564)))
 (let (($x685 (not W_S1_V2)))
 (let (($x333 (not W_S1_V1)))
 (let (($x456 (not R_E1_V1)))
 (let (($x2803 (and DISJ_W_S1_R_E1 $x456 $x333 $x685 $x5701 $x889 W_S1_V3 W_S2_V4 $x3426 $x25 $x809 $x1039 $x3125 $x3244 $x3537 $x5200 $x2939 $x6040)))
 (and $x2803 $x554))))))))))))))))))))))))))))))))))))))))))))))))))))))))))))
(check-sat)
